1 -1 -2 0
1 -3 1 0
1 -4 -5 0
1 -4 -6 0
1 -4 7 0
1 -5 -8 0
1 -5 9 0
1 -5 10 0
1 5 11 0
1 11 -12 0
1 11 -5 0
1 -11 -13 0
1 -11 -14 0
1 11 -15 0
1 -11 -4 0
1 11 1 0
1 11 7 0
1 7 -16 0
1 -7 5 0
1 -7 3 0
1 10 16 0
1 10 -17 0
1 -10 5 0
1 10 -3 0
1 10 18 0
1 10 14 0
1 10 4 0
1 6 16 0
1 -6 19 0
1 6 17 0
1 6 -10 0
1 -6 -14 0
1 20 8 0
1 -20 -21 0
1 20 -11 0
1 20 22 0
1 -20 -7 0
1 -21 20 0
1 -21 7 0
1 -15 8 0
1 15 23 0
1 15 -11 0
1 -15 -22 0
1 -15 -24 0
1 -15 -25 0
1 -15 7 0
1 12 9 0
1 12 -26 0
1 -12 19 0
1 12 -23 0
1 12 22 0
1 12 -15 0
1 -27 -28 0
1 27 -12 0
1 27 21 0
1 -27 -5 0
1 27 -29 0
1 -27 -30 0
1 27 15 0
1 -9 31 0
1 -9 -5 0
1 -9 29 0
1 9 30 0
1 9 32 0
1 -9 27 0
1 -9 15 0
1 9 -33 0
1 22 -21 0
1 22 -29 0
1 -22 34 0
1 22 35 0
1 22 14 0
1 22 15 0
1 -22 20 0
1 -22 4 0
1 -22 33 0
1 -8 -36 0
1 8 37 0
1 -8 -16 0
1 8 12 0
1 -8 -29 0
1 -8 14 0
1 -32 -26 0
1 32 -27 0
1 32 14 0
1 32 24 0
1 -32 -38 0
1 28 16 0
1 28 -26 0
1 28 -23 0
1 28 -32 0
1 28 -24 0
1 -30 31 0
1 30 9 0
1 30 -27 0
1 -30 38 0
1 -31 23 0
1 -31 30 0
1 -31 27 0
1 31 -24 0
1 -38 31 0
1 38 12 0
1 -38 30 0
1 -23 -28 0
1 -23 39 0
1 23 40 0
1 -23 30 0
1 -23 32 0
1 23 15 0
1 23 -38 0
1 24 26 0
1 24 40 0
1 24 -30 0
1 -24 -32 0
1 -24 -41 0
1 -24 -42 0
1 -24 -43 0
1 26 12 0
1 -26 -29 0
1 -26 42 0
1 -26 -33 0
1 2 44 0
1 2 -45 0
1 -2 -46 0
1 -47 45 0
1 47 -3 0
1 -47 -2 0
1 48 45 0
1 -48 -49 0
1 48 50 0
1 -48 51 0
1 -48 -52 0
1 -48 4 0
1 51 44 0
1 -51 -49 0
1 -51 5 0
1 51 46 0
1 51 -52 0
1 -51 53 0
1 51 -48 0
1 -45 17 0
1 45 51 0
1 -45 -54 0
1 45 -48 0
1 45 -2 0
1 -54 -17 0
1 -54 -47 0
1 54 -55 0
1 54 -56 0
1 54 -2 0
1 -44 51 0
1 -44 -47 0
1 44 2 0
1 -46 44 0
1 -46 51 0
1 -46 -47 0
1 -46 -48 0
1 -56 17 0
1 56 -54 0
1 -56 -20 0
1 17 45 0
1 17 -49 0
1 17 -50 0
1 -17 53 0
1 -17 -6 0
1 25 -45 0
1 -25 -19 0
1 -25 -10 0
1 25 52 0
1 25 -15 0
1 25 53 0
1 -25 57 0
1 19 -53 0
1 -19 -49 0
1 19 50 0
1 -19 58 0
1 19 57 0
1 -19 6 0
1 -50 59 0
1 50 -36 0
1 -50 16 0
1 -50 -51 0
1 -50 60 0
1 -50 34 0
1 -50 -14 0
1 50 56 0
1 50 -48 0
1 53 -36 0
1 53 19 0
1 53 -17 0
1 53 50 0
1 -53 14 0
1 -49 59 0
1 -49 -17 0
1 -49 -51 0
1 49 52 0
1 -49 -56 0
1 -52 -59 0
1 52 -49 0
1 52 -17 0
1 -52 -51 0
1 -52 60 0
1 -52 -25 0
1 52 -48 0
1 14 16 0
1 -14 -58 0
1 -14 -11 0
1 14 22 0
1 -14 -32 0
1 14 -57 0
1 16 50 0
1 16 -58 0
1 -16 -10 0
1 16 11 0
1 16 22 0
1 16 -53 0
1 16 -61 0
1 16 -57 0
1 16 6 0
1 -34 -50 0
1 34 -18 0
1 34 -13 0
1 -34 22 0
1 34 -61 0
1 34 57 0
1 -36 -50 0
1 -36 -58 0
1 36 -62 0
1 -36 18 0
1 -36 -57 0
1 36 63 0
1 -62 -36 0
1 -62 -64 0
1 62 -65 0
1 -62 29 0
1 -62 -34 0
1 62 -14 0
1 -57 36 0
1 -57 16 0
1 -57 64 0
1 -57 29 0
1 -57 -34 0
1 57 43 0
1 58 -36 0
1 58 19 0
1 -58 -64 0
1 58 -66 0
1 58 -60 0
1 58 -14 0
1 58 25 0
1 -58 -61 0
1 -58 -67 0
1 -61 -16 0
1 61 34 0
1 61 25 0
1 61 -68 0
1 61 67 0
1 -29 69 0
1 29 22 0
1 -29 13 0
1 -29 57 0
1 33 -59 0
1 -33 -8 0
1 -33 69 0
1 -33 9 0
1 -33 26 0
1 33 62 0
1 -33 -13 0
1 -33 22 0
1 33 -63 0
1 65 -26 0
1 65 18 0
1 65 -13 0
1 65 -24 0
1 65 57 0
1 65 -43 0
1 65 -63 0
1 -43 -26 0
1 43 -62 0
1 -43 65 0
1 -43 -13 0
1 -43 -70 0
1 -43 24 0
1 -13 69 0
1 13 -71 0
1 13 40 0
1 13 29 0
1 13 -11 0
1 13 43 0
1 -13 -33 0
1 69 -72 0
1 -69 71 0
1 69 -40 0
1 69 65 0
1 -69 29 0
1 -69 -13 0
1 69 7 0
1 -69 73 0
1 69 -43 0
1 18 -74 0
1 -18 -65 0
1 -18 34 0
1 -18 43 0
1 63 74 0
1 63 -64 0
1 63 65 0
1 63 -73 0
1 63 75 0
1 -40 -69 0
1 40 -37 0
1 40 76 0
1 40 -13 0
1 -40 -70 0
1 42 -69 0
1 42 37 0
1 42 -23 0
1 -42 40 0
1 42 -24 0
1 -42 38 0
1 -71 -69 0
1 71 -76 0
1 -71 -39 0
1 -71 13 0
1 71 35 0
1 -71 70 0
1 71 -77 0
1 -78 69 0
1 78 -79 0
1 -78 13 0
1 -78 -70 0
1 -78 41 0
1 -78 -77 0
1 -70 -80 0
1 -70 -81 0
1 70 71 0
1 -70 65 0
1 70 -27 0
1 70 82 0
1 -70 78 0
1 70 42 0
1 76 81 0
1 -76 71 0
1 -76 -40 0
1 76 65 0
1 -76 83 0
1 76 70 0
1 76 -82 0
1 -76 42 0
1 35 84 0
1 35 -65 0
1 35 22 0
1 -35 -42 0
1 -37 84 0
1 37 -71 0
1 37 65 0
1 37 -35 0
1 37 -78 0
1 81 -79 0
1 -81 39 0
1 81 -41 0
1 -82 -79 0
1 -82 73 0
1 -80 -76 0
1 -80 84 0
1 80 -39 0
1 80 -83 0
1 80 -41 0
1 -83 76 0
1 83 -80 0
1 83 79 0
1 83 -85 0
1 -83 41 0
1 -77 71 0
1 -39 -80 0
1 39 -71 0
1 -41 80 0
1 -41 79 0
1 41 71 0
1 41 -24 0
1 79 26 0
1 -79 -80 0
1 -79 -71 0
1 79 -41 0
1 79 -83 0
1 -79 82 0
1 60 86 0
1 -60 87 0
1 -60 49 0
1 60 -50 0
1 -60 58 0
1 -60 -52 0
1 59 -49 0
1 59 -50 0
1 -59 58 0
1 59 88 0
1 59 -55 0
1 59 -53 0
1 -66 86 0
1 66 -87 0
1 -66 -58 0
1 -66 -88 0
1 66 -55 0
1 66 -89 0
1 66 90 0
1 66 -61 0
1 -66 -67 0
1 67 -87 0
1 -67 -91 0
1 67 -92 0
1 67 58 0
1 67 -66 0
1 67 -55 0
1 67 -61 0
1 -67 43 0
1 -87 -59 0
1 -87 -45 0
1 -87 64 0
1 -87 -66 0
1 87 60 0
1 55 -87 0
1 -55 74 0
1 -55 -64 0
1 55 66 0
1 -55 -54 0
1 55 -93 0
1 86 -44 0
1 -86 60 0
1 -86 88 0
1 -88 59 0
1 -88 -86 0
1 88 -66 0
1 -88 -60 0
1 -88 46 0
1 -88 67 0
1 -64 91 0
1 -64 92 0
1 64 58 0
1 64 40 0
1 -64 -55 0
1 -64 -90 0
1 -64 57 0
1 64 -63 0
1 -75 -87 0
1 -75 91 0
1 -75 58 0
1 75 62 0
1 -75 64 0
1 -75 18 0
1 -75 89 0
1 -75 42 0
1 -74 68 0
1 -74 -91 0
1 -74 92 0
1 74 94 0
1 74 -89 0
1 -74 -90 0
1 74 -95 0
1 -93 -89 0
1 93 78 0
1 -92 -90 0
1 -92 -84 0
1 -92 74 0
1 92 85 0
1 -92 93 0
1 92 75 0
1 90 -72 0
1 -90 64 0
1 90 66 0
1 -90 -53 0
1 90 -73 0
1 90 -93 0
1 91 49 0
1 91 -74 0
1 -91 -66 0
1 91 -93 0
1 -91 75 0
1 89 -74 0
1 89 -64 0
1 -89 -66 0
1 89 -52 0
1 -89 75 0
1 -89 67 0
1 72 -69 0
1 72 37 0
1 -72 90 0
1 72 92 0
1 -72 96 0
1 72 94 0
1 72 -18 0
1 -72 13 0
1 -72 35 0
1 -72 -68 0
1 -72 -95 0
1 -72 63 0
1 73 37 0
1 73 -96 0
1 73 94 0
1 73 95 0
1 84 37 0
1 84 80 0
1 84 90 0
1 -84 95 0
1 85 37 0
1 -85 -96 0
1 -85 35 0
1 -85 -95 0
1 94 72 0
1 94 -74 0
1 -94 62 0
1 -94 85 0
1 -94 93 0
1 94 95 0
1 95 -94 0
1 95 -85 0
1 -95 93 0
1 -95 57 0
1 96 84 0
1 96 58 0
1 96 -73 0
1 -96 -93 0
1 68 -84 0
1 68 -96 0
1 68 -85 0
1 -68 -73 0
